(declare-const X String)
; ^(\(\d{2}\)?\s?|\d{2}(\-|\s))?\d{2,4}(\-|\s)?\d{4,5}$
(assert (str.in.re X (re.++ (re.opt (re.union (re.++ (str.to.re "(") ((_ re.loop 2 2) (re.range "0" "9")) (re.opt (str.to.re ")")) (re.opt (re.union (str.to.re " ") (str.to.re "\x09") (str.to.re "\x0a") (str.to.re "\x0c") (str.to.re "\x0d")))) (re.++ ((_ re.loop 2 2) (re.range "0" "9")) (re.union (str.to.re "-") (str.to.re " ") (str.to.re "\x09") (str.to.re "\x0a") (str.to.re "\x0c") (str.to.re "\x0d"))))) ((_ re.loop 2 4) (re.range "0" "9")) (re.opt (re.union (str.to.re "-") (str.to.re " ") (str.to.re "\x09") (str.to.re "\x0a") (str.to.re "\x0c") (str.to.re "\x0d"))) ((_ re.loop 4 5) (re.range "0" "9")) (str.to.re "\x0a"))))
; ^([0-9]*\-?\ ?\/?[0-9]*)$
(assert (not (str.in.re X (re.++ (str.to.re "\x0a") (re.* (re.range "0" "9")) (re.opt (str.to.re "-")) (re.opt (str.to.re " ")) (re.opt (str.to.re "/")) (re.* (re.range "0" "9"))))))
; ^[/]*([^/\\ \:\*\?"\<\>\|\.][^/\\\:\*\?\"\<\>\|]{0,63}/)*[^/\\ \:\*\?"\<\>\|\.][^/\\\:\*\?\"\<\>\|]{0,63}$
(assert (str.in.re X (re.++ (re.* (str.to.re "/")) (re.* (re.++ (re.union (str.to.re "/") (str.to.re "\x5c") (str.to.re " ") (str.to.re ":") (str.to.re "*") (str.to.re "?") (str.to.re "\x22") (str.to.re "<") (str.to.re ">") (str.to.re "|") (str.to.re ".")) ((_ re.loop 0 63) (re.union (str.to.re "/") (str.to.re "\x5c") (str.to.re ":") (str.to.re "*") (str.to.re "?") (str.to.re "\x22") (str.to.re "<") (str.to.re ">") (str.to.re "|"))) (str.to.re "/"))) (re.union (str.to.re "/") (str.to.re "\x5c") (str.to.re " ") (str.to.re ":") (str.to.re "*") (str.to.re "?") (str.to.re "\x22") (str.to.re "<") (str.to.re ">") (str.to.re "|") (str.to.re ".")) ((_ re.loop 0 63) (re.union (str.to.re "/") (str.to.re "\x5c") (str.to.re ":") (str.to.re "*") (str.to.re "?") (str.to.re "\x22") (str.to.re "<") (str.to.re ">") (str.to.re "|"))) (str.to.re "\x0a"))))
; libManager\x2Edll\x5Eget
(assert (str.in.re X (str.to.re "libManager.dll^get\x0a")))
; \d+\s*[.'-]\s*\d+\s*[\d+.m\"]*
(assert (not (str.in.re X (re.++ (re.+ (re.range "0" "9")) (re.* (re.union (str.to.re " ") (str.to.re "\x09") (str.to.re "\x0a") (str.to.re "\x0c") (str.to.re "\x0d"))) (re.union (str.to.re ".") (str.to.re "'") (str.to.re "-")) (re.* (re.union (str.to.re " ") (str.to.re "\x09") (str.to.re "\x0a") (str.to.re "\x0c") (str.to.re "\x0d"))) (re.+ (re.range "0" "9")) (re.* (re.union (str.to.re " ") (str.to.re "\x09") (str.to.re "\x0a") (str.to.re "\x0c") (str.to.re "\x0d"))) (re.* (re.union (re.range "0" "9") (str.to.re "+") (str.to.re ".") (str.to.re "m") (str.to.re "\x22"))) (str.to.re "\x0a")))))
(check-sat)
